436,-75
532,112
542,-21
980,-6
996,177
1184,327
1137,554
744,343
576,261
542,-21
518,86
532,112
729,371
918,443
975,257
148,322
385,360
415,364
463,248
996,177
1081,202
980,-6
744,343
709,397
749,539
436,887
606,880
321,766
892,697
1020,745
606,880
644,292
795,369
778,336
576,261
385,360
326,350
425,489
652,410
591,406
267,471
321,766
254,623
415,364
653,397
709,397
729,371
801,406
829,554
801,406
918,443
892,697
1137,554
1184,327
